p cnf 48 2576 
1 1 0 
-1 -1 0 
2 2 0 
-2 -2 0 
3 3 0 
-3 -3 0 
4 4 0 
-4 -4 0 
5 5 0 
-5 -5 0 
6 6 0 
-6 -6 0 
7 7 0 
-7 -7 0 
8 8 0 
-8 -8 0 
9 9 0 
-9 -9 0 
10 10 0 
-10 -10 0 
11 11 0 
-11 -11 0 
12 12 0 
-12 -12 0 
13 13 0 
-13 -13 0 
14 14 0 
-14 -14 0 
15 15 0 
-15 -15 0 
16 16 0 
-16 -16 0 
17 17 0 
-17 -17 0 
18 18 0 
-18 -18 0 
19 19 0 
-19 -19 0 
20 20 0 
-20 -20 0 
21 21 0 
-21 -21 0 
22 22 0 
-22 -22 0 
23 23 0 
-23 -23 0 
24 24 0 
-24 -24 0 
1 25 0 
-1 -25 0 
2 26 0 
-2 -26 0 
3 27 0 
-3 -27 0 
4 28 0 
-4 -28 0 
5 29 0 
-5 -29 0 
6 30 0 
-6 -30 0 
7 31 0 
-7 -31 0 
8 32 0 
-8 -32 0 
9 33 0 
-9 -33 0 
10 34 0 
-10 -34 0 
11 35 0 
-11 -35 0 
12 36 0 
-12 -36 0 
13 37 0 
-13 -37 0 
14 38 0 
-14 -38 0 
15 39 0 
-15 -39 0 
16 40 0 
-16 -40 0 
17 41 0 
-17 -41 0 
18 42 0 
-18 -42 0 
19 43 0 
-19 -43 0 
20 44 0 
-20 -44 0 
21 45 0 
-21 -45 0 
22 46 0 
-22 -46 0 
23 47 0 
-23 -47 0 
24 48 0 
-24 -48 0 
25 1 0 
-25 -1 0 
26 2 0 
-26 -2 0 
27 3 0 
-27 -3 0 
28 4 0 
-28 -4 0 
29 5 0 
-29 -5 0 
30 6 0 
-30 -6 0 
31 7 0 
-31 -7 0 
32 8 0 
-32 -8 0 
33 9 0 
-33 -9 0 
34 10 0 
-34 -10 0 
35 11 0 
-35 -11 0 
36 12 0 
-36 -12 0 
37 13 0 
-37 -13 0 
38 14 0 
-38 -14 0 
39 15 0 
-39 -15 0 
40 16 0 
-40 -16 0 
41 17 0 
-41 -17 0 
42 18 0 
-42 -18 0 
43 19 0 
-43 -19 0 
44 20 0 
-44 -20 0 
45 21 0 
-45 -21 0 
46 22 0 
-46 -22 0 
47 23 0 
-47 -23 0 
48 24 0 
-48 -24 0 
25 25 0 
-25 -25 0 
26 26 0 
-26 -26 0 
27 27 0 
-27 -27 0 
28 28 0 
-28 -28 0 
29 29 0 
-29 -29 0 
30 30 0 
-30 -30 0 
31 31 0 
-31 -31 0 
32 32 0 
-32 -32 0 
33 33 0 
-33 -33 0 
34 34 0 
-34 -34 0 
35 35 0 
-35 -35 0 
36 36 0 
-36 -36 0 
37 37 0 
-37 -37 0 
38 38 0 
-38 -38 0 
39 39 0 
-39 -39 0 
40 40 0 
-40 -40 0 
41 41 0 
-41 -41 0 
42 42 0 
-42 -42 0 
43 43 0 
-43 -43 0 
44 44 0 
-44 -44 0 
45 45 0 
-45 -45 0 
46 46 0 
-46 -46 0 
47 47 0 
-47 -47 0 
48 48 0 
-48 -48 0 
-1 33 0 
-25 9 0 
-1 34 0 
-25 10 0 
-1 35 0 
-25 11 0 
-1 36 0 
-25 12 0 
-1 37 0 
-25 13 0 
-1 38 0 
-25 14 0 
-1 39 0 
-25 15 0 
-1 40 0 
-25 16 0 
-2 33 0 
-26 9 0 
-2 34 0 
-26 10 0 
-2 35 0 
-26 11 0 
-2 36 0 
-26 12 0 
-2 37 0 
-26 13 0 
-2 38 0 
-26 14 0 
-2 39 0 
-26 15 0 
-2 40 0 
-26 16 0 
-3 33 0 
-27 9 0 
-3 34 0 
-27 10 0 
-3 35 0 
-27 11 0 
-3 36 0 
-27 12 0 
-3 37 0 
-27 13 0 
-3 38 0 
-27 14 0 
-3 39 0 
-27 15 0 
-3 40 0 
-27 16 0 
-4 33 0 
-28 9 0 
-4 34 0 
-28 10 0 
-4 35 0 
-28 11 0 
-4 36 0 
-28 12 0 
-4 37 0 
-28 13 0 
-4 38 0 
-28 14 0 
-4 39 0 
-28 15 0 
-4 40 0 
-28 16 0 
-5 33 0 
-29 9 0 
-5 34 0 
-29 10 0 
-5 35 0 
-29 11 0 
-5 36 0 
-29 12 0 
-5 37 0 
-29 13 0 
-5 38 0 
-29 14 0 
-5 39 0 
-29 15 0 
-5 40 0 
-29 16 0 
-6 33 0 
-30 9 0 
-6 34 0 
-30 10 0 
-6 35 0 
-30 11 0 
-6 36 0 
-30 12 0 
-6 37 0 
-30 13 0 
-6 38 0 
-30 14 0 
-6 39 0 
-30 15 0 
-6 40 0 
-30 16 0 
-7 33 0 
-31 9 0 
-7 34 0 
-31 10 0 
-7 35 0 
-31 11 0 
-7 36 0 
-31 12 0 
-7 37 0 
-31 13 0 
-7 38 0 
-31 14 0 
-7 39 0 
-31 15 0 
-7 40 0 
-31 16 0 
-8 33 0 
-32 9 0 
-8 34 0 
-32 10 0 
-8 35 0 
-32 11 0 
-8 36 0 
-32 12 0 
-8 37 0 
-32 13 0 
-8 38 0 
-32 14 0 
-8 39 0 
-32 15 0 
-8 40 0 
-32 16 0 
-1 41 0 
-25 17 0 
-1 42 0 
-25 18 0 
-1 43 0 
-25 19 0 
-1 44 0 
-25 20 0 
-1 45 0 
-25 21 0 
-1 46 0 
-25 22 0 
-1 47 0 
-25 23 0 
-1 48 0 
-25 24 0 
-2 41 0 
-26 17 0 
-2 42 0 
-26 18 0 
-2 43 0 
-26 19 0 
-2 44 0 
-26 20 0 
-2 45 0 
-26 21 0 
-2 46 0 
-26 22 0 
-2 47 0 
-26 23 0 
-2 48 0 
-26 24 0 
-3 41 0 
-27 17 0 
-3 42 0 
-27 18 0 
-3 43 0 
-27 19 0 
-3 44 0 
-27 20 0 
-3 45 0 
-27 21 0 
-3 46 0 
-27 22 0 
-3 47 0 
-27 23 0 
-3 48 0 
-27 24 0 
-4 41 0 
-28 17 0 
-4 42 0 
-28 18 0 
-4 43 0 
-28 19 0 
-4 44 0 
-28 20 0 
-4 45 0 
-28 21 0 
-4 46 0 
-28 22 0 
-4 47 0 
-28 23 0 
-4 48 0 
-28 24 0 
-5 41 0 
-29 17 0 
-5 42 0 
-29 18 0 
-5 43 0 
-29 19 0 
-5 44 0 
-29 20 0 
-5 45 0 
-29 21 0 
-5 46 0 
-29 22 0 
-5 47 0 
-29 23 0 
-5 48 0 
-29 24 0 
-6 41 0 
-30 17 0 
-6 42 0 
-30 18 0 
-6 43 0 
-30 19 0 
-6 44 0 
-30 20 0 
-6 45 0 
-30 21 0 
-6 46 0 
-30 22 0 
-6 47 0 
-30 23 0 
-6 48 0 
-30 24 0 
-7 41 0 
-31 17 0 
-7 42 0 
-31 18 0 
-7 43 0 
-31 19 0 
-7 44 0 
-31 20 0 
-7 45 0 
-31 21 0 
-7 46 0 
-31 22 0 
-7 47 0 
-31 23 0 
-7 48 0 
-31 24 0 
-8 41 0 
-32 17 0 
-8 42 0 
-32 18 0 
-8 43 0 
-32 19 0 
-8 44 0 
-32 20 0 
-8 45 0 
-32 21 0 
-8 46 0 
-32 22 0 
-8 47 0 
-32 23 0 
-8 48 0 
-32 24 0 
-9 25 0 
-33 1 0 
-9 26 0 
-33 2 0 
-9 27 0 
-33 3 0 
-9 28 0 
-33 4 0 
-9 29 0 
-33 5 0 
-9 30 0 
-33 6 0 
-9 31 0 
-33 7 0 
-9 32 0 
-33 8 0 
-10 25 0 
-34 1 0 
-10 26 0 
-34 2 0 
-10 27 0 
-34 3 0 
-10 28 0 
-34 4 0 
-10 29 0 
-34 5 0 
-10 30 0 
-34 6 0 
-10 31 0 
-34 7 0 
-10 32 0 
-34 8 0 
-11 25 0 
-35 1 0 
-11 26 0 
-35 2 0 
-11 27 0 
-35 3 0 
-11 28 0 
-35 4 0 
-11 29 0 
-35 5 0 
-11 30 0 
-35 6 0 
-11 31 0 
-35 7 0 
-11 32 0 
-35 8 0 
-12 25 0 
-36 1 0 
-12 26 0 
-36 2 0 
-12 27 0 
-36 3 0 
-12 28 0 
-36 4 0 
-12 29 0 
-36 5 0 
-12 30 0 
-36 6 0 
-12 31 0 
-36 7 0 
-12 32 0 
-36 8 0 
-13 25 0 
-37 1 0 
-13 26 0 
-37 2 0 
-13 27 0 
-37 3 0 
-13 28 0 
-37 4 0 
-13 29 0 
-37 5 0 
-13 30 0 
-37 6 0 
-13 31 0 
-37 7 0 
-13 32 0 
-37 8 0 
-14 25 0 
-38 1 0 
-14 26 0 
-38 2 0 
-14 27 0 
-38 3 0 
-14 28 0 
-38 4 0 
-14 29 0 
-38 5 0 
-14 30 0 
-38 6 0 
-14 31 0 
-38 7 0 
-14 32 0 
-38 8 0 
-15 25 0 
-39 1 0 
-15 26 0 
-39 2 0 
-15 27 0 
-39 3 0 
-15 28 0 
-39 4 0 
-15 29 0 
-39 5 0 
-15 30 0 
-39 6 0 
-15 31 0 
-39 7 0 
-15 32 0 
-39 8 0 
-16 25 0 
-40 1 0 
-16 26 0 
-40 2 0 
-16 27 0 
-40 3 0 
-16 28 0 
-40 4 0 
-16 29 0 
-40 5 0 
-16 30 0 
-40 6 0 
-16 31 0 
-40 7 0 
-16 32 0 
-40 8 0 
-9 41 0 
-33 17 0 
-9 42 0 
-33 18 0 
-9 43 0 
-33 19 0 
-9 44 0 
-33 20 0 
-9 45 0 
-33 21 0 
-9 46 0 
-33 22 0 
-9 47 0 
-33 23 0 
-9 48 0 
-33 24 0 
-10 41 0 
-34 17 0 
-10 42 0 
-34 18 0 
-10 43 0 
-34 19 0 
-10 44 0 
-34 20 0 
-10 45 0 
-34 21 0 
-10 46 0 
-34 22 0 
-10 47 0 
-34 23 0 
-10 48 0 
-34 24 0 
-11 41 0 
-35 17 0 
-11 42 0 
-35 18 0 
-11 43 0 
-35 19 0 
-11 44 0 
-35 20 0 
-11 45 0 
-35 21 0 
-11 46 0 
-35 22 0 
-11 47 0 
-35 23 0 
-11 48 0 
-35 24 0 
-12 41 0 
-36 17 0 
-12 42 0 
-36 18 0 
-12 43 0 
-36 19 0 
-12 44 0 
-36 20 0 
-12 45 0 
-36 21 0 
-12 46 0 
-36 22 0 
-12 47 0 
-36 23 0 
-12 48 0 
-36 24 0 
-13 41 0 
-37 17 0 
-13 42 0 
-37 18 0 
-13 43 0 
-37 19 0 
-13 44 0 
-37 20 0 
-13 45 0 
-37 21 0 
-13 46 0 
-37 22 0 
-13 47 0 
-37 23 0 
-13 48 0 
-37 24 0 
-14 41 0 
-38 17 0 
-14 42 0 
-38 18 0 
-14 43 0 
-38 19 0 
-14 44 0 
-38 20 0 
-14 45 0 
-38 21 0 
-14 46 0 
-38 22 0 
-14 47 0 
-38 23 0 
-14 48 0 
-38 24 0 
-15 41 0 
-39 17 0 
-15 42 0 
-39 18 0 
-15 43 0 
-39 19 0 
-15 44 0 
-39 20 0 
-15 45 0 
-39 21 0 
-15 46 0 
-39 22 0 
-15 47 0 
-39 23 0 
-15 48 0 
-39 24 0 
-16 41 0 
-40 17 0 
-16 42 0 
-40 18 0 
-16 43 0 
-40 19 0 
-16 44 0 
-40 20 0 
-16 45 0 
-40 21 0 
-16 46 0 
-40 22 0 
-16 47 0 
-40 23 0 
-16 48 0 
-40 24 0 
-17 25 0 
-41 1 0 
-17 26 0 
-41 2 0 
-17 27 0 
-41 3 0 
-17 28 0 
-41 4 0 
-17 29 0 
-41 5 0 
-17 30 0 
-41 6 0 
-17 31 0 
-41 7 0 
-17 32 0 
-41 8 0 
-18 25 0 
-42 1 0 
-18 26 0 
-42 2 0 
-18 27 0 
-42 3 0 
-18 28 0 
-42 4 0 
-18 29 0 
-42 5 0 
-18 30 0 
-42 6 0 
-18 31 0 
-42 7 0 
-18 32 0 
-42 8 0 
-19 25 0 
-43 1 0 
-19 26 0 
-43 2 0 
-19 27 0 
-43 3 0 
-19 28 0 
-43 4 0 
-19 29 0 
-43 5 0 
-19 30 0 
-43 6 0 
-19 31 0 
-43 7 0 
-19 32 0 
-43 8 0 
-20 25 0 
-44 1 0 
-20 26 0 
-44 2 0 
-20 27 0 
-44 3 0 
-20 28 0 
-44 4 0 
-20 29 0 
-44 5 0 
-20 30 0 
-44 6 0 
-20 31 0 
-44 7 0 
-20 32 0 
-44 8 0 
-21 25 0 
-45 1 0 
-21 26 0 
-45 2 0 
-21 27 0 
-45 3 0 
-21 28 0 
-45 4 0 
-21 29 0 
-45 5 0 
-21 30 0 
-45 6 0 
-21 31 0 
-45 7 0 
-21 32 0 
-45 8 0 
-22 25 0 
-46 1 0 
-22 26 0 
-46 2 0 
-22 27 0 
-46 3 0 
-22 28 0 
-46 4 0 
-22 29 0 
-46 5 0 
-22 30 0 
-46 6 0 
-22 31 0 
-46 7 0 
-22 32 0 
-46 8 0 
-23 25 0 
-47 1 0 
-23 26 0 
-47 2 0 
-23 27 0 
-47 3 0 
-23 28 0 
-47 4 0 
-23 29 0 
-47 5 0 
-23 30 0 
-47 6 0 
-23 31 0 
-47 7 0 
-23 32 0 
-47 8 0 
-24 25 0 
-48 1 0 
-24 26 0 
-48 2 0 
-24 27 0 
-48 3 0 
-24 28 0 
-48 4 0 
-24 29 0 
-48 5 0 
-24 30 0 
-48 6 0 
-24 31 0 
-48 7 0 
-24 32 0 
-48 8 0 
-17 33 0 
-41 9 0 
-17 34 0 
-41 10 0 
-17 35 0 
-41 11 0 
-17 36 0 
-41 12 0 
-17 37 0 
-41 13 0 
-17 38 0 
-41 14 0 
-17 39 0 
-41 15 0 
-17 40 0 
-41 16 0 
-18 33 0 
-42 9 0 
-18 34 0 
-42 10 0 
-18 35 0 
-42 11 0 
-18 36 0 
-42 12 0 
-18 37 0 
-42 13 0 
-18 38 0 
-42 14 0 
-18 39 0 
-42 15 0 
-18 40 0 
-42 16 0 
-19 33 0 
-43 9 0 
-19 34 0 
-43 10 0 
-19 35 0 
-43 11 0 
-19 36 0 
-43 12 0 
-19 37 0 
-43 13 0 
-19 38 0 
-43 14 0 
-19 39 0 
-43 15 0 
-19 40 0 
-43 16 0 
-20 33 0 
-44 9 0 
-20 34 0 
-44 10 0 
-20 35 0 
-44 11 0 
-20 36 0 
-44 12 0 
-20 37 0 
-44 13 0 
-20 38 0 
-44 14 0 
-20 39 0 
-44 15 0 
-20 40 0 
-44 16 0 
-21 33 0 
-45 9 0 
-21 34 0 
-45 10 0 
-21 35 0 
-45 11 0 
-21 36 0 
-45 12 0 
-21 37 0 
-45 13 0 
-21 38 0 
-45 14 0 
-21 39 0 
-45 15 0 
-21 40 0 
-45 16 0 
-22 33 0 
-46 9 0 
-22 34 0 
-46 10 0 
-22 35 0 
-46 11 0 
-22 36 0 
-46 12 0 
-22 37 0 
-46 13 0 
-22 38 0 
-46 14 0 
-22 39 0 
-46 15 0 
-22 40 0 
-46 16 0 
-23 33 0 
-47 9 0 
-23 34 0 
-47 10 0 
-23 35 0 
-47 11 0 
-23 36 0 
-47 12 0 
-23 37 0 
-47 13 0 
-23 38 0 
-47 14 0 
-23 39 0 
-47 15 0 
-23 40 0 
-47 16 0 
-24 33 0 
-48 9 0 
-24 34 0 
-48 10 0 
-24 35 0 
-48 11 0 
-24 36 0 
-48 12 0 
-24 37 0 
-48 13 0 
-24 38 0 
-48 14 0 
-24 39 0 
-48 15 0 
-24 40 0 
-48 16 0 
-25 9 0 
-1 33 0 
-25 10 0 
-1 34 0 
-25 11 0 
-1 35 0 
-25 12 0 
-1 36 0 
-25 13 0 
-1 37 0 
-25 14 0 
-1 38 0 
-25 15 0 
-1 39 0 
-25 16 0 
-1 40 0 
-26 9 0 
-2 33 0 
-26 10 0 
-2 34 0 
-26 11 0 
-2 35 0 
-26 12 0 
-2 36 0 
-26 13 0 
-2 37 0 
-26 14 0 
-2 38 0 
-26 15 0 
-2 39 0 
-26 16 0 
-2 40 0 
-27 9 0 
-3 33 0 
-27 10 0 
-3 34 0 
-27 11 0 
-3 35 0 
-27 12 0 
-3 36 0 
-27 13 0 
-3 37 0 
-27 14 0 
-3 38 0 
-27 15 0 
-3 39 0 
-27 16 0 
-3 40 0 
-28 9 0 
-4 33 0 
-28 10 0 
-4 34 0 
-28 11 0 
-4 35 0 
-28 12 0 
-4 36 0 
-28 13 0 
-4 37 0 
-28 14 0 
-4 38 0 
-28 15 0 
-4 39 0 
-28 16 0 
-4 40 0 
-29 9 0 
-5 33 0 
-29 10 0 
-5 34 0 
-29 11 0 
-5 35 0 
-29 12 0 
-5 36 0 
-29 13 0 
-5 37 0 
-29 14 0 
-5 38 0 
-29 15 0 
-5 39 0 
-29 16 0 
-5 40 0 
-30 9 0 
-6 33 0 
-30 10 0 
-6 34 0 
-30 11 0 
-6 35 0 
-30 12 0 
-6 36 0 
-30 13 0 
-6 37 0 
-30 14 0 
-6 38 0 
-30 15 0 
-6 39 0 
-30 16 0 
-6 40 0 
-31 9 0 
-7 33 0 
-31 10 0 
-7 34 0 
-31 11 0 
-7 35 0 
-31 12 0 
-7 36 0 
-31 13 0 
-7 37 0 
-31 14 0 
-7 38 0 
-31 15 0 
-7 39 0 
-31 16 0 
-7 40 0 
-32 9 0 
-8 33 0 
-32 10 0 
-8 34 0 
-32 11 0 
-8 35 0 
-32 12 0 
-8 36 0 
-32 13 0 
-8 37 0 
-32 14 0 
-8 38 0 
-32 15 0 
-8 39 0 
-32 16 0 
-8 40 0 
-25 17 0 
-1 41 0 
-25 18 0 
-1 42 0 
-25 19 0 
-1 43 0 
-25 20 0 
-1 44 0 
-25 21 0 
-1 45 0 
-25 22 0 
-1 46 0 
-25 23 0 
-1 47 0 
-25 24 0 
-1 48 0 
-26 17 0 
-2 41 0 
-26 18 0 
-2 42 0 
-26 19 0 
-2 43 0 
-26 20 0 
-2 44 0 
-26 21 0 
-2 45 0 
-26 22 0 
-2 46 0 
-26 23 0 
-2 47 0 
-26 24 0 
-2 48 0 
-27 17 0 
-3 41 0 
-27 18 0 
-3 42 0 
-27 19 0 
-3 43 0 
-27 20 0 
-3 44 0 
-27 21 0 
-3 45 0 
-27 22 0 
-3 46 0 
-27 23 0 
-3 47 0 
-27 24 0 
-3 48 0 
-28 17 0 
-4 41 0 
-28 18 0 
-4 42 0 
-28 19 0 
-4 43 0 
-28 20 0 
-4 44 0 
-28 21 0 
-4 45 0 
-28 22 0 
-4 46 0 
-28 23 0 
-4 47 0 
-28 24 0 
-4 48 0 
-29 17 0 
-5 41 0 
-29 18 0 
-5 42 0 
-29 19 0 
-5 43 0 
-29 20 0 
-5 44 0 
-29 21 0 
-5 45 0 
-29 22 0 
-5 46 0 
-29 23 0 
-5 47 0 
-29 24 0 
-5 48 0 
-30 17 0 
-6 41 0 
-30 18 0 
-6 42 0 
-30 19 0 
-6 43 0 
-30 20 0 
-6 44 0 
-30 21 0 
-6 45 0 
-30 22 0 
-6 46 0 
-30 23 0 
-6 47 0 
-30 24 0 
-6 48 0 
-31 17 0 
-7 41 0 
-31 18 0 
-7 42 0 
-31 19 0 
-7 43 0 
-31 20 0 
-7 44 0 
-31 21 0 
-7 45 0 
-31 22 0 
-7 46 0 
-31 23 0 
-7 47 0 
-31 24 0 
-7 48 0 
-32 17 0 
-8 41 0 
-32 18 0 
-8 42 0 
-32 19 0 
-8 43 0 
-32 20 0 
-8 44 0 
-32 21 0 
-8 45 0 
-32 22 0 
-8 46 0 
-32 23 0 
-8 47 0 
-32 24 0 
-8 48 0 
-33 1 0 
-9 25 0 
-33 2 0 
-9 26 0 
-33 3 0 
-9 27 0 
-33 4 0 
-9 28 0 
-33 5 0 
-9 29 0 
-33 6 0 
-9 30 0 
-33 7 0 
-9 31 0 
-33 8 0 
-9 32 0 
-34 1 0 
-10 25 0 
-34 2 0 
-10 26 0 
-34 3 0 
-10 27 0 
-34 4 0 
-10 28 0 
-34 5 0 
-10 29 0 
-34 6 0 
-10 30 0 
-34 7 0 
-10 31 0 
-34 8 0 
-10 32 0 
-35 1 0 
-11 25 0 
-35 2 0 
-11 26 0 
-35 3 0 
-11 27 0 
-35 4 0 
-11 28 0 
-35 5 0 
-11 29 0 
-35 6 0 
-11 30 0 
-35 7 0 
-11 31 0 
-35 8 0 
-11 32 0 
-36 1 0 
-12 25 0 
-36 2 0 
-12 26 0 
-36 3 0 
-12 27 0 
-36 4 0 
-12 28 0 
-36 5 0 
-12 29 0 
-36 6 0 
-12 30 0 
-36 7 0 
-12 31 0 
-36 8 0 
-12 32 0 
-37 1 0 
-13 25 0 
-37 2 0 
-13 26 0 
-37 3 0 
-13 27 0 
-37 4 0 
-13 28 0 
-37 5 0 
-13 29 0 
-37 6 0 
-13 30 0 
-37 7 0 
-13 31 0 
-37 8 0 
-13 32 0 
-38 1 0 
-14 25 0 
-38 2 0 
-14 26 0 
-38 3 0 
-14 27 0 
-38 4 0 
-14 28 0 
-38 5 0 
-14 29 0 
-38 6 0 
-14 30 0 
-38 7 0 
-14 31 0 
-38 8 0 
-14 32 0 
-39 1 0 
-15 25 0 
-39 2 0 
-15 26 0 
-39 3 0 
-15 27 0 
-39 4 0 
-15 28 0 
-39 5 0 
-15 29 0 
-39 6 0 
-15 30 0 
-39 7 0 
-15 31 0 
-39 8 0 
-15 32 0 
-40 1 0 
-16 25 0 
-40 2 0 
-16 26 0 
-40 3 0 
-16 27 0 
-40 4 0 
-16 28 0 
-40 5 0 
-16 29 0 
-40 6 0 
-16 30 0 
-40 7 0 
-16 31 0 
-40 8 0 
-16 32 0 
-33 17 0 
-9 41 0 
-33 18 0 
-9 42 0 
-33 19 0 
-9 43 0 
-33 20 0 
-9 44 0 
-33 21 0 
-9 45 0 
-33 22 0 
-9 46 0 
-33 23 0 
-9 47 0 
-33 24 0 
-9 48 0 
-34 17 0 
-10 41 0 
-34 18 0 
-10 42 0 
-34 19 0 
-10 43 0 
-34 20 0 
-10 44 0 
-34 21 0 
-10 45 0 
-34 22 0 
-10 46 0 
-34 23 0 
-10 47 0 
-34 24 0 
-10 48 0 
-35 17 0 
-11 41 0 
-35 18 0 
-11 42 0 
-35 19 0 
-11 43 0 
-35 20 0 
-11 44 0 
-35 21 0 
-11 45 0 
-35 22 0 
-11 46 0 
-35 23 0 
-11 47 0 
-35 24 0 
-11 48 0 
-36 17 0 
-12 41 0 
-36 18 0 
-12 42 0 
-36 19 0 
-12 43 0 
-36 20 0 
-12 44 0 
-36 21 0 
-12 45 0 
-36 22 0 
-12 46 0 
-36 23 0 
-12 47 0 
-36 24 0 
-12 48 0 
-37 17 0 
-13 41 0 
-37 18 0 
-13 42 0 
-37 19 0 
-13 43 0 
-37 20 0 
-13 44 0 
-37 21 0 
-13 45 0 
-37 22 0 
-13 46 0 
-37 23 0 
-13 47 0 
-37 24 0 
-13 48 0 
-38 17 0 
-14 41 0 
-38 18 0 
-14 42 0 
-38 19 0 
-14 43 0 
-38 20 0 
-14 44 0 
-38 21 0 
-14 45 0 
-38 22 0 
-14 46 0 
-38 23 0 
-14 47 0 
-38 24 0 
-14 48 0 
-39 17 0 
-15 41 0 
-39 18 0 
-15 42 0 
-39 19 0 
-15 43 0 
-39 20 0 
-15 44 0 
-39 21 0 
-15 45 0 
-39 22 0 
-15 46 0 
-39 23 0 
-15 47 0 
-39 24 0 
-15 48 0 
-40 17 0 
-16 41 0 
-40 18 0 
-16 42 0 
-40 19 0 
-16 43 0 
-40 20 0 
-16 44 0 
-40 21 0 
-16 45 0 
-40 22 0 
-16 46 0 
-40 23 0 
-16 47 0 
-40 24 0 
-16 48 0 
-41 1 0 
-17 25 0 
-41 2 0 
-17 26 0 
-41 3 0 
-17 27 0 
-41 4 0 
-17 28 0 
-41 5 0 
-17 29 0 
-41 6 0 
-17 30 0 
-41 7 0 
-17 31 0 
-41 8 0 
-17 32 0 
-42 1 0 
-18 25 0 
-42 2 0 
-18 26 0 
-42 3 0 
-18 27 0 
-42 4 0 
-18 28 0 
-42 5 0 
-18 29 0 
-42 6 0 
-18 30 0 
-42 7 0 
-18 31 0 
-42 8 0 
-18 32 0 
-43 1 0 
-19 25 0 
-43 2 0 
-19 26 0 
-43 3 0 
-19 27 0 
-43 4 0 
-19 28 0 
-43 5 0 
-19 29 0 
-43 6 0 
-19 30 0 
-43 7 0 
-19 31 0 
-43 8 0 
-19 32 0 
-44 1 0 
-20 25 0 
-44 2 0 
-20 26 0 
-44 3 0 
-20 27 0 
-44 4 0 
-20 28 0 
-44 5 0 
-20 29 0 
-44 6 0 
-20 30 0 
-44 7 0 
-20 31 0 
-44 8 0 
-20 32 0 
-45 1 0 
-21 25 0 
-45 2 0 
-21 26 0 
-45 3 0 
-21 27 0 
-45 4 0 
-21 28 0 
-45 5 0 
-21 29 0 
-45 6 0 
-21 30 0 
-45 7 0 
-21 31 0 
-45 8 0 
-21 32 0 
-46 1 0 
-22 25 0 
-46 2 0 
-22 26 0 
-46 3 0 
-22 27 0 
-46 4 0 
-22 28 0 
-46 5 0 
-22 29 0 
-46 6 0 
-22 30 0 
-46 7 0 
-22 31 0 
-46 8 0 
-22 32 0 
-47 1 0 
-23 25 0 
-47 2 0 
-23 26 0 
-47 3 0 
-23 27 0 
-47 4 0 
-23 28 0 
-47 5 0 
-23 29 0 
-47 6 0 
-23 30 0 
-47 7 0 
-23 31 0 
-47 8 0 
-23 32 0 
-48 1 0 
-24 25 0 
-48 2 0 
-24 26 0 
-48 3 0 
-24 27 0 
-48 4 0 
-24 28 0 
-48 5 0 
-24 29 0 
-48 6 0 
-24 30 0 
-48 7 0 
-24 31 0 
-48 8 0 
-24 32 0 
-41 9 0 
-17 33 0 
-41 10 0 
-17 34 0 
-41 11 0 
-17 35 0 
-41 12 0 
-17 36 0 
-41 13 0 
-17 37 0 
-41 14 0 
-17 38 0 
-41 15 0 
-17 39 0 
-41 16 0 
-17 40 0 
-42 9 0 
-18 33 0 
-42 10 0 
-18 34 0 
-42 11 0 
-18 35 0 
-42 12 0 
-18 36 0 
-42 13 0 
-18 37 0 
-42 14 0 
-18 38 0 
-42 15 0 
-18 39 0 
-42 16 0 
-18 40 0 
-43 9 0 
-19 33 0 
-43 10 0 
-19 34 0 
-43 11 0 
-19 35 0 
-43 12 0 
-19 36 0 
-43 13 0 
-19 37 0 
-43 14 0 
-19 38 0 
-43 15 0 
-19 39 0 
-43 16 0 
-19 40 0 
-44 9 0 
-20 33 0 
-44 10 0 
-20 34 0 
-44 11 0 
-20 35 0 
-44 12 0 
-20 36 0 
-44 13 0 
-20 37 0 
-44 14 0 
-20 38 0 
-44 15 0 
-20 39 0 
-44 16 0 
-20 40 0 
-45 9 0 
-21 33 0 
-45 10 0 
-21 34 0 
-45 11 0 
-21 35 0 
-45 12 0 
-21 36 0 
-45 13 0 
-21 37 0 
-45 14 0 
-21 38 0 
-45 15 0 
-21 39 0 
-45 16 0 
-21 40 0 
-46 9 0 
-22 33 0 
-46 10 0 
-22 34 0 
-46 11 0 
-22 35 0 
-46 12 0 
-22 36 0 
-46 13 0 
-22 37 0 
-46 14 0 
-22 38 0 
-46 15 0 
-22 39 0 
-46 16 0 
-22 40 0 
-47 9 0 
-23 33 0 
-47 10 0 
-23 34 0 
-47 11 0 
-23 35 0 
-47 12 0 
-23 36 0 
-47 13 0 
-23 37 0 
-47 14 0 
-23 38 0 
-47 15 0 
-23 39 0 
-47 16 0 
-23 40 0 
-48 9 0 
-24 33 0 
-48 10 0 
-24 34 0 
-48 11 0 
-24 35 0 
-48 12 0 
-24 36 0 
-48 13 0 
-24 37 0 
-48 14 0 
-24 38 0 
-48 15 0 
-24 39 0 
-48 16 0 
-24 40 0 
-1 -2 -26 0 
-1 -3 -27 0 
-1 -4 -28 0 
-1 -5 -29 0 
-1 -6 -30 0 
-1 -7 -31 0 
-1 -8 -32 0 
-2 -1 -25 0 
-2 -3 -27 0 
-2 -4 -28 0 
-2 -5 -29 0 
-2 -6 -30 0 
-2 -7 -31 0 
-2 -8 -32 0 
-3 -1 -25 0 
-3 -2 -26 0 
-3 -4 -28 0 
-3 -5 -29 0 
-3 -6 -30 0 
-3 -7 -31 0 
-3 -8 -32 0 
-4 -1 -25 0 
-4 -2 -26 0 
-4 -3 -27 0 
-4 -5 -29 0 
-4 -6 -30 0 
-4 -7 -31 0 
-4 -8 -32 0 
-5 -1 -25 0 
-5 -2 -26 0 
-5 -3 -27 0 
-5 -4 -28 0 
-5 -6 -30 0 
-5 -7 -31 0 
-5 -8 -32 0 
-6 -1 -25 0 
-6 -2 -26 0 
-6 -3 -27 0 
-6 -4 -28 0 
-6 -5 -29 0 
-6 -7 -31 0 
-6 -8 -32 0 
-7 -1 -25 0 
-7 -2 -26 0 
-7 -3 -27 0 
-7 -4 -28 0 
-7 -5 -29 0 
-7 -6 -30 0 
-7 -8 -32 0 
-8 -1 -25 0 
-8 -2 -26 0 
-8 -3 -27 0 
-8 -4 -28 0 
-8 -5 -29 0 
-8 -6 -30 0 
-8 -7 -31 0 
-9 -10 -34 0 
-9 -11 -35 0 
-9 -12 -36 0 
-9 -13 -37 0 
-9 -14 -38 0 
-9 -15 -39 0 
-9 -16 -40 0 
-10 -9 -33 0 
-10 -11 -35 0 
-10 -12 -36 0 
-10 -13 -37 0 
-10 -14 -38 0 
-10 -15 -39 0 
-10 -16 -40 0 
-11 -9 -33 0 
-11 -10 -34 0 
-11 -12 -36 0 
-11 -13 -37 0 
-11 -14 -38 0 
-11 -15 -39 0 
-11 -16 -40 0 
-12 -9 -33 0 
-12 -10 -34 0 
-12 -11 -35 0 
-12 -13 -37 0 
-12 -14 -38 0 
-12 -15 -39 0 
-12 -16 -40 0 
-13 -9 -33 0 
-13 -10 -34 0 
-13 -11 -35 0 
-13 -12 -36 0 
-13 -14 -38 0 
-13 -15 -39 0 
-13 -16 -40 0 
-14 -9 -33 0 
-14 -10 -34 0 
-14 -11 -35 0 
-14 -12 -36 0 
-14 -13 -37 0 
-14 -15 -39 0 
-14 -16 -40 0 
-15 -9 -33 0 
-15 -10 -34 0 
-15 -11 -35 0 
-15 -12 -36 0 
-15 -13 -37 0 
-15 -14 -38 0 
-15 -16 -40 0 
-16 -9 -33 0 
-16 -10 -34 0 
-16 -11 -35 0 
-16 -12 -36 0 
-16 -13 -37 0 
-16 -14 -38 0 
-16 -15 -39 0 
-17 -18 -42 0 
-17 -19 -43 0 
-17 -20 -44 0 
-17 -21 -45 0 
-17 -22 -46 0 
-17 -23 -47 0 
-17 -24 -48 0 
-18 -17 -41 0 
-18 -19 -43 0 
-18 -20 -44 0 
-18 -21 -45 0 
-18 -22 -46 0 
-18 -23 -47 0 
-18 -24 -48 0 
-19 -17 -41 0 
-19 -18 -42 0 
-19 -20 -44 0 
-19 -21 -45 0 
-19 -22 -46 0 
-19 -23 -47 0 
-19 -24 -48 0 
-20 -17 -41 0 
-20 -18 -42 0 
-20 -19 -43 0 
-20 -21 -45 0 
-20 -22 -46 0 
-20 -23 -47 0 
-20 -24 -48 0 
-21 -17 -41 0 
-21 -18 -42 0 
-21 -19 -43 0 
-21 -20 -44 0 
-21 -22 -46 0 
-21 -23 -47 0 
-21 -24 -48 0 
-22 -17 -41 0 
-22 -18 -42 0 
-22 -19 -43 0 
-22 -20 -44 0 
-22 -21 -45 0 
-22 -23 -47 0 
-22 -24 -48 0 
-23 -17 -41 0 
-23 -18 -42 0 
-23 -19 -43 0 
-23 -20 -44 0 
-23 -21 -45 0 
-23 -22 -46 0 
-23 -24 -48 0 
-24 -17 -41 0 
-24 -18 -42 0 
-24 -19 -43 0 
-24 -20 -44 0 
-24 -21 -45 0 
-24 -22 -46 0 
-24 -23 -47 0 
-25 -26 -2 0 
-25 -27 -3 0 
-25 -28 -4 0 
-25 -29 -5 0 
-25 -30 -6 0 
-25 -31 -7 0 
-25 -32 -8 0 
-26 -25 -1 0 
-26 -27 -3 0 
-26 -28 -4 0 
-26 -29 -5 0 
-26 -30 -6 0 
-26 -31 -7 0 
-26 -32 -8 0 
-27 -25 -1 0 
-27 -26 -2 0 
-27 -28 -4 0 
-27 -29 -5 0 
-27 -30 -6 0 
-27 -31 -7 0 
-27 -32 -8 0 
-28 -25 -1 0 
-28 -26 -2 0 
-28 -27 -3 0 
-28 -29 -5 0 
-28 -30 -6 0 
-28 -31 -7 0 
-28 -32 -8 0 
-29 -25 -1 0 
-29 -26 -2 0 
-29 -27 -3 0 
-29 -28 -4 0 
-29 -30 -6 0 
-29 -31 -7 0 
-29 -32 -8 0 
-30 -25 -1 0 
-30 -26 -2 0 
-30 -27 -3 0 
-30 -28 -4 0 
-30 -29 -5 0 
-30 -31 -7 0 
-30 -32 -8 0 
-31 -25 -1 0 
-31 -26 -2 0 
-31 -27 -3 0 
-31 -28 -4 0 
-31 -29 -5 0 
-31 -30 -6 0 
-31 -32 -8 0 
-32 -25 -1 0 
-32 -26 -2 0 
-32 -27 -3 0 
-32 -28 -4 0 
-32 -29 -5 0 
-32 -30 -6 0 
-32 -31 -7 0 
-33 -34 -10 0 
-33 -35 -11 0 
-33 -36 -12 0 
-33 -37 -13 0 
-33 -38 -14 0 
-33 -39 -15 0 
-33 -40 -16 0 
-34 -33 -9 0 
-34 -35 -11 0 
-34 -36 -12 0 
-34 -37 -13 0 
-34 -38 -14 0 
-34 -39 -15 0 
-34 -40 -16 0 
-35 -33 -9 0 
-35 -34 -10 0 
-35 -36 -12 0 
-35 -37 -13 0 
-35 -38 -14 0 
-35 -39 -15 0 
-35 -40 -16 0 
-36 -33 -9 0 
-36 -34 -10 0 
-36 -35 -11 0 
-36 -37 -13 0 
-36 -38 -14 0 
-36 -39 -15 0 
-36 -40 -16 0 
-37 -33 -9 0 
-37 -34 -10 0 
-37 -35 -11 0 
-37 -36 -12 0 
-37 -38 -14 0 
-37 -39 -15 0 
-37 -40 -16 0 
-38 -33 -9 0 
-38 -34 -10 0 
-38 -35 -11 0 
-38 -36 -12 0 
-38 -37 -13 0 
-38 -39 -15 0 
-38 -40 -16 0 
-39 -33 -9 0 
-39 -34 -10 0 
-39 -35 -11 0 
-39 -36 -12 0 
-39 -37 -13 0 
-39 -38 -14 0 
-39 -40 -16 0 
-40 -33 -9 0 
-40 -34 -10 0 
-40 -35 -11 0 
-40 -36 -12 0 
-40 -37 -13 0 
-40 -38 -14 0 
-40 -39 -15 0 
-41 -42 -18 0 
-41 -43 -19 0 
-41 -44 -20 0 
-41 -45 -21 0 
-41 -46 -22 0 
-41 -47 -23 0 
-41 -48 -24 0 
-42 -41 -17 0 
-42 -43 -19 0 
-42 -44 -20 0 
-42 -45 -21 0 
-42 -46 -22 0 
-42 -47 -23 0 
-42 -48 -24 0 
-43 -41 -17 0 
-43 -42 -18 0 
-43 -44 -20 0 
-43 -45 -21 0 
-43 -46 -22 0 
-43 -47 -23 0 
-43 -48 -24 0 
-44 -41 -17 0 
-44 -42 -18 0 
-44 -43 -19 0 
-44 -45 -21 0 
-44 -46 -22 0 
-44 -47 -23 0 
-44 -48 -24 0 
-45 -41 -17 0 
-45 -42 -18 0 
-45 -43 -19 0 
-45 -44 -20 0 
-45 -46 -22 0 
-45 -47 -23 0 
-45 -48 -24 0 
-46 -41 -17 0 
-46 -42 -18 0 
-46 -43 -19 0 
-46 -44 -20 0 
-46 -45 -21 0 
-46 -47 -23 0 
-46 -48 -24 0 
-47 -41 -17 0 
-47 -42 -18 0 
-47 -43 -19 0 
-47 -44 -20 0 
-47 -45 -21 0 
-47 -46 -22 0 
-47 -48 -24 0 
-48 -41 -17 0 
-48 -42 -18 0 
-48 -43 -19 0 
-48 -44 -20 0 
-48 -45 -21 0 
-48 -46 -22 0 
-48 -47 -23 0 
-1 -9 0 
-25 -33 0 
-1 -10 0 
-25 -34 0 
-1 -11 0 
-25 -35 0 
-1 -12 0 
-25 -36 0 
-1 -13 0 
-25 -37 0 
-1 -14 0 
-25 -38 0 
-1 -15 0 
-25 -39 0 
-1 -16 0 
-25 -40 0 
-2 -9 0 
-26 -33 0 
-2 -10 0 
-26 -34 0 
-2 -11 0 
-26 -35 0 
-2 -12 0 
-26 -36 0 
-2 -13 0 
-26 -37 0 
-2 -14 0 
-26 -38 0 
-2 -15 0 
-26 -39 0 
-2 -16 0 
-26 -40 0 
-3 -9 0 
-27 -33 0 
-3 -10 0 
-27 -34 0 
-3 -11 0 
-27 -35 0 
-3 -12 0 
-27 -36 0 
-3 -13 0 
-27 -37 0 
-3 -14 0 
-27 -38 0 
-3 -15 0 
-27 -39 0 
-3 -16 0 
-27 -40 0 
-4 -9 0 
-28 -33 0 
-4 -10 0 
-28 -34 0 
-4 -11 0 
-28 -35 0 
-4 -12 0 
-28 -36 0 
-4 -13 0 
-28 -37 0 
-4 -14 0 
-28 -38 0 
-4 -15 0 
-28 -39 0 
-4 -16 0 
-28 -40 0 
-5 -9 0 
-29 -33 0 
-5 -10 0 
-29 -34 0 
-5 -11 0 
-29 -35 0 
-5 -12 0 
-29 -36 0 
-5 -13 0 
-29 -37 0 
-5 -14 0 
-29 -38 0 
-5 -15 0 
-29 -39 0 
-5 -16 0 
-29 -40 0 
-6 -9 0 
-30 -33 0 
-6 -10 0 
-30 -34 0 
-6 -11 0 
-30 -35 0 
-6 -12 0 
-30 -36 0 
-6 -13 0 
-30 -37 0 
-6 -14 0 
-30 -38 0 
-6 -15 0 
-30 -39 0 
-6 -16 0 
-30 -40 0 
-7 -9 0 
-31 -33 0 
-7 -10 0 
-31 -34 0 
-7 -11 0 
-31 -35 0 
-7 -12 0 
-31 -36 0 
-7 -13 0 
-31 -37 0 
-7 -14 0 
-31 -38 0 
-7 -15 0 
-31 -39 0 
-7 -16 0 
-31 -40 0 
-8 -9 0 
-32 -33 0 
-8 -10 0 
-32 -34 0 
-8 -11 0 
-32 -35 0 
-8 -12 0 
-32 -36 0 
-8 -13 0 
-32 -37 0 
-8 -14 0 
-32 -38 0 
-8 -15 0 
-32 -39 0 
-8 -16 0 
-32 -40 0 
-9 -17 0 
-33 -41 0 
-9 -18 0 
-33 -42 0 
-9 -19 0 
-33 -43 0 
-9 -20 0 
-33 -44 0 
-9 -21 0 
-33 -45 0 
-9 -22 0 
-33 -46 0 
-9 -23 0 
-33 -47 0 
-9 -24 0 
-33 -48 0 
-10 -17 0 
-34 -41 0 
-10 -18 0 
-34 -42 0 
-10 -19 0 
-34 -43 0 
-10 -20 0 
-34 -44 0 
-10 -21 0 
-34 -45 0 
-10 -22 0 
-34 -46 0 
-10 -23 0 
-34 -47 0 
-10 -24 0 
-34 -48 0 
-11 -17 0 
-35 -41 0 
-11 -18 0 
-35 -42 0 
-11 -19 0 
-35 -43 0 
-11 -20 0 
-35 -44 0 
-11 -21 0 
-35 -45 0 
-11 -22 0 
-35 -46 0 
-11 -23 0 
-35 -47 0 
-11 -24 0 
-35 -48 0 
-12 -17 0 
-36 -41 0 
-12 -18 0 
-36 -42 0 
-12 -19 0 
-36 -43 0 
-12 -20 0 
-36 -44 0 
-12 -21 0 
-36 -45 0 
-12 -22 0 
-36 -46 0 
-12 -23 0 
-36 -47 0 
-12 -24 0 
-36 -48 0 
-13 -17 0 
-37 -41 0 
-13 -18 0 
-37 -42 0 
-13 -19 0 
-37 -43 0 
-13 -20 0 
-37 -44 0 
-13 -21 0 
-37 -45 0 
-13 -22 0 
-37 -46 0 
-13 -23 0 
-37 -47 0 
-13 -24 0 
-37 -48 0 
-14 -17 0 
-38 -41 0 
-14 -18 0 
-38 -42 0 
-14 -19 0 
-38 -43 0 
-14 -20 0 
-38 -44 0 
-14 -21 0 
-38 -45 0 
-14 -22 0 
-38 -46 0 
-14 -23 0 
-38 -47 0 
-14 -24 0 
-38 -48 0 
-15 -17 0 
-39 -41 0 
-15 -18 0 
-39 -42 0 
-15 -19 0 
-39 -43 0 
-15 -20 0 
-39 -44 0 
-15 -21 0 
-39 -45 0 
-15 -22 0 
-39 -46 0 
-15 -23 0 
-39 -47 0 
-15 -24 0 
-39 -48 0 
-16 -17 0 
-40 -41 0 
-16 -18 0 
-40 -42 0 
-16 -19 0 
-40 -43 0 
-16 -20 0 
-40 -44 0 
-16 -21 0 
-40 -45 0 
-16 -22 0 
-40 -46 0 
-16 -23 0 
-40 -47 0 
-16 -24 0 
-40 -48 0 
-25 -33 0 
-1 -9 0 
-25 -34 0 
-1 -10 0 
-25 -35 0 
-1 -11 0 
-25 -36 0 
-1 -12 0 
-25 -37 0 
-1 -13 0 
-25 -38 0 
-1 -14 0 
-25 -39 0 
-1 -15 0 
-25 -40 0 
-1 -16 0 
-26 -33 0 
-2 -9 0 
-26 -34 0 
-2 -10 0 
-26 -35 0 
-2 -11 0 
-26 -36 0 
-2 -12 0 
-26 -37 0 
-2 -13 0 
-26 -38 0 
-2 -14 0 
-26 -39 0 
-2 -15 0 
-26 -40 0 
-2 -16 0 
-27 -33 0 
-3 -9 0 
-27 -34 0 
-3 -10 0 
-27 -35 0 
-3 -11 0 
-27 -36 0 
-3 -12 0 
-27 -37 0 
-3 -13 0 
-27 -38 0 
-3 -14 0 
-27 -39 0 
-3 -15 0 
-27 -40 0 
-3 -16 0 
-28 -33 0 
-4 -9 0 
-28 -34 0 
-4 -10 0 
-28 -35 0 
-4 -11 0 
-28 -36 0 
-4 -12 0 
-28 -37 0 
-4 -13 0 
-28 -38 0 
-4 -14 0 
-28 -39 0 
-4 -15 0 
-28 -40 0 
-4 -16 0 
-29 -33 0 
-5 -9 0 
-29 -34 0 
-5 -10 0 
-29 -35 0 
-5 -11 0 
-29 -36 0 
-5 -12 0 
-29 -37 0 
-5 -13 0 
-29 -38 0 
-5 -14 0 
-29 -39 0 
-5 -15 0 
-29 -40 0 
-5 -16 0 
-30 -33 0 
-6 -9 0 
-30 -34 0 
-6 -10 0 
-30 -35 0 
-6 -11 0 
-30 -36 0 
-6 -12 0 
-30 -37 0 
-6 -13 0 
-30 -38 0 
-6 -14 0 
-30 -39 0 
-6 -15 0 
-30 -40 0 
-6 -16 0 
-31 -33 0 
-7 -9 0 
-31 -34 0 
-7 -10 0 
-31 -35 0 
-7 -11 0 
-31 -36 0 
-7 -12 0 
-31 -37 0 
-7 -13 0 
-31 -38 0 
-7 -14 0 
-31 -39 0 
-7 -15 0 
-31 -40 0 
-7 -16 0 
-32 -33 0 
-8 -9 0 
-32 -34 0 
-8 -10 0 
-32 -35 0 
-8 -11 0 
-32 -36 0 
-8 -12 0 
-32 -37 0 
-8 -13 0 
-32 -38 0 
-8 -14 0 
-32 -39 0 
-8 -15 0 
-32 -40 0 
-8 -16 0 
-33 -41 0 
-9 -17 0 
-33 -42 0 
-9 -18 0 
-33 -43 0 
-9 -19 0 
-33 -44 0 
-9 -20 0 
-33 -45 0 
-9 -21 0 
-33 -46 0 
-9 -22 0 
-33 -47 0 
-9 -23 0 
-33 -48 0 
-9 -24 0 
-34 -41 0 
-10 -17 0 
-34 -42 0 
-10 -18 0 
-34 -43 0 
-10 -19 0 
-34 -44 0 
-10 -20 0 
-34 -45 0 
-10 -21 0 
-34 -46 0 
-10 -22 0 
-34 -47 0 
-10 -23 0 
-34 -48 0 
-10 -24 0 
-35 -41 0 
-11 -17 0 
-35 -42 0 
-11 -18 0 
-35 -43 0 
-11 -19 0 
-35 -44 0 
-11 -20 0 
-35 -45 0 
-11 -21 0 
-35 -46 0 
-11 -22 0 
-35 -47 0 
-11 -23 0 
-35 -48 0 
-11 -24 0 
-36 -41 0 
-12 -17 0 
-36 -42 0 
-12 -18 0 
-36 -43 0 
-12 -19 0 
-36 -44 0 
-12 -20 0 
-36 -45 0 
-12 -21 0 
-36 -46 0 
-12 -22 0 
-36 -47 0 
-12 -23 0 
-36 -48 0 
-12 -24 0 
-37 -41 0 
-13 -17 0 
-37 -42 0 
-13 -18 0 
-37 -43 0 
-13 -19 0 
-37 -44 0 
-13 -20 0 
-37 -45 0 
-13 -21 0 
-37 -46 0 
-13 -22 0 
-37 -47 0 
-13 -23 0 
-37 -48 0 
-13 -24 0 
-38 -41 0 
-14 -17 0 
-38 -42 0 
-14 -18 0 
-38 -43 0 
-14 -19 0 
-38 -44 0 
-14 -20 0 
-38 -45 0 
-14 -21 0 
-38 -46 0 
-14 -22 0 
-38 -47 0 
-14 -23 0 
-38 -48 0 
-14 -24 0 
-39 -41 0 
-15 -17 0 
-39 -42 0 
-15 -18 0 
-39 -43 0 
-15 -19 0 
-39 -44 0 
-15 -20 0 
-39 -45 0 
-15 -21 0 
-39 -46 0 
-15 -22 0 
-39 -47 0 
-15 -23 0 
-39 -48 0 
-15 -24 0 
-40 -41 0 
-16 -17 0 
-40 -42 0 
-16 -18 0 
-40 -43 0 
-16 -19 0 
-40 -44 0 
-16 -20 0 
-40 -45 0 
-16 -21 0 
-40 -46 0 
-16 -22 0 
-40 -47 0 
-16 -23 0 
-40 -48 0 
-16 -24 0 
